letting n =  10
letting blocks =  [[1, 1], [1, 2], [1, 7], [2, 3], [2, 10], [4, 1], [4, 3], [5, 6], [5, 8], [6, 5], [7, 1], [7, 3], [7, 6], [7, 7], [7, 9], [7, 10], [8, 4], [8, 8], [8, 10], [9, 3], [9, 5], [9, 7], [10, 1], [10, 10]]
